minizinc/sudoku_problems2/sudoku_p51.dzn
%
% sudoku_p51.dzn
% See http://www.hakank.org/minizinc/sudoku_gcc.mzn
% 
% This problem is problem 51 from
% Gecode's sudoku.cpp
% http://www.gecode.org/gecode-doc-latest/sudoku_8cpp-source.html
% 
x = array2d(1..n, 1..n, [   
% http://janko.at/Raetsel/Sudoku/368.a.htm
% 51
 12,  _,  _, 11,  6,  1,  _,  _, 16,  _,  _,  _, 15,  _, 10, 14,
  4, 14,  8, 15,  _,  _,  _, 10,  _,  _,  _,  _,  _, 13, 16,  _,
  _, 13,  _,  _, 15,  3,  _, 14,  1,  _,  5, 10,  _,  _,  6,  _,
  5,  _,  _,  _,  _,  _, 16, 11, 14,  9, 15, 12,  _,  _,  8,  2,
  _,  _,  5, 14, 11,  _, 13,  8,  _,  _,  _,  1,  _, 15,  _,  6,
  _,  _, 10, 13,  _,  7,  2,  _,  _,  _,  6,  _,  _,  3,  _,  8,
  _,  _,  _,  3,  _,  _, 14,  _,  9, 15, 11,  8,  5,  _,  _,  _,
  6,  _, 11,  4,  _,  _,  1,  _,  _,  _,  _,  2, 12, 10, 14,  _,
  _,  3, 14,  9, 12,  _,  _,  _,  _, 16,  _,  _, 13,  1,  _,  7,
  _,  _,  _, 12, 14, 16,  3, 13,  _,  7,  _,  _, 10,  _,  _,  _,
 10,  _, 15,  _,  _, 11,  _,  _,  _, 12, 13,  _, 14, 16,  _,  _,
 13,  _,  7,  _,  1,  _,  _,  _, 11,  2,  _,  3,  4,  8,  _,  _,
 15, 16,  _,  _,  8, 14, 11,  1,  7, 10,  _,  _,  _,  _,  _,  3,
  _,  4,  _,  _, 13,  6,  _, 16,  3,  _, 12, 14,  _,  _,  5,  _,
  _,  6,  2,  _,  _,  _,  _,  _, 13,  _,  _,  _,  7,  4, 12, 10,
  3, 11,  _, 10,  _,  _,  _,  4,  _,  _,  9, 15,  8,  _,  _, 16
]);

n = 16;


